567 568 569 570 474 473 472 471 469 468 470 496 497 461 459 460 462 463 464 465 466 467 571 17 18 19 20 21 24 25 26 27 28 29 30 32 31 22 23 12 13 14 15 16 11 10 9 8 7 6 572 573 5 0 4 3 2 1 458 457 456 455 454 439 443 444 445 431 432 433 434 435 436 438 437 430 429 428 427 426 425 424 423 422 421 420 419 417 418 412 411 410 384 383 382 386 385 387 388 389 390 381 380 379 378 377 376 375 374 315 314 316 313 312 311 451 450 449 448 447 446 442 441 440 453 452 499 500 501 498 502 503 504 505 310 309 308 506 507 508 302 301 303 304 307 305 306 318 317 319 320 321 322 373 323 324 325 326 327 328 329 342 366 367 365 368 369 370 372 371 396 395 394 393 392 391 397 398 399 407 408 409 404 405 406 400 403 401 402 356 357 355 354 353 352 413 414 416 415 351 350 349 347 348 358 359 360 361 362 363 364 346 345 344 343 341 340 330 331 332 333 339 338 337 336 335 334 283 284 285 286 287 280 281 282 279 278 277 276 288 289 290 275 274 273 292 291 293 270 269 272 271 268 267 294 295 296 297 298 299 300 265 266 264 263 262 258 259 261 260 257 256 255 253 254 252 251 250 249 248 241 242 243 244 245 247 246 238 239 240 237 236 235 234 232 233 231 230 229 228 227 189 225 226 190 191 192 219 218 220 221 222 224 223 217 216 215 214 213 212 211 210 209 193 194 195 196 197 205 206 207 208 198 199 200 201 202 204 203 165 164 166 167 163 168 162 160 159 156 155 154 153 157 158 145 144 143 142 146 147 148 152 149 150 151 141 140 139 136 135 134 133 132 131 130 129 137 138 128 127 126 125 124 69 70 68 67 66 65 71 72 73 74 75 76 64 62 63 61 60 59 58 57 81 80 79 78 77 88 89 94 93 90 87 86 85 82 83 84 51 50 52 54 53 56 55 49 48 47 43 42 39 38 37 36 33 34 35 40 41 44 45 46 91 92 555 556 557 554 553 552 99 98 97 96 95 118 119 120 121 122 123 117 116 115 114 113 161 112 111 110 109 107 106 105 104 103 102 100 101 551 550 559 558 560 561 562 563 565 566 564 549 548 545 546 547 544 543 541 542 108 173 174 175 172 170 171 169 180 181 179 182 183 184 185 186 188 187 178 177 176 540 538 539 537 536 535 487 534 488 533 532 489 531 530 529 528 511 510 509 513 512 527 514 515 516 517 520 519 518 495 494 521 522 523 526 525 524 493 492 491 490 486 485 484 483 482 481 480 479 478 477 476 475